c Standarized MaxSat Instance
c{
c "sha1sum": "7b3a0b724496a0537f0d20a0273bf576188f450e",
c "nvars": 1250,
c "ncls": 2001,
c "total_lits": 3304,
c "nhards": 1901,
c "nhard_nlits": 3204,
c "nhard_len_stats":
c    { "min": 1,
c      "max": 6,
c      "ave": 1.6854,
c      "stddev": 1.0821 },
c "nsofts": 100,
c "nsoft_nlits": 100,
c "nsoft_len_stats":
c    { "min": 1,
c      "max": 1,
c      "ave": 1.0000,
c      "stddev": 0.0000 },
c "nsoft_wts": 1,
c "soft_wt_stats":
c    { "min": 1,
c      "max": 1,
c      "ave": 1.0000,
c      "stddev": 0.0000 }
c}
c------------------------------------------------------------
h -1 112 0
h -1 174 0
h -1 218 0
h -1 231 0
h -2 117 0
h -2 138 0
h -2 189 0
h -2 217 0
h -2 230 0
h -3 127 0
h -3 130 0
h -3 162 0
h -3 206 0
h -3 213 0
h -3 214 0
h -3 243 0
h -4 146 0
h -4 199 0
h -4 218 0
h -4 226 0
h -4 227 0
h -4 228 0
h -4 238 0
h -4 250 0
h -5 111 0
h -5 174 0
h -5 209 0
h -5 237 0
h -5 241 0
h -6 108 0
h -6 121 0
h -6 210 0
h -6 225 0
h -6 240 0
h -7 135 0
h -7 145 0
h -7 152 0
h -7 185 0
h -8 114 0
h -8 132 0
h -8 162 0
h -8 179 0
h -8 181 0
h -9 142 0
h -9 158 0
h -9 160 0
h -9 164 0
h -9 212 0
h -9 223 0
h -10 133 0
h -10 148 0
h -10 159 0
h -10 161 0
h -10 183 0
h -10 184 0
h -10 208 0
h -11 117 0
h -11 123 0
h -11 144 0
h -11 149 0
h -11 165 0
h -11 201 0
h -11 244 0
h -12 125 0
h -12 159 0
h -12 206 0
h -12 240 0
h -13 161 0
h -13 168 0
h -13 175 0
h -13 195 0
h -13 197 0
h -14 167 0
h -14 169 0
h -14 196 0
h -14 200 0
h -14 222 0
h -14 231 0
h -14 232 0
h -15 125 0
h -15 140 0
h -15 146 0
h -15 150 0
h -15 171 0
h -15 188 0
h -15 214 0
h -15 249 0
h -16 109 0
h -16 126 0
h -16 147 0
h -16 171 0
h -16 190 0
h -16 217 0
h -16 244 0
h -16 245 0
h -17 105 0
h -17 111 0
h -17 123 0
h -17 162 0
h -17 163 0
h -18 116 0
h -18 196 0
h -18 208 0
h -18 227 0
h -19 142 0
h -19 166 0
h -19 175 0
h -19 189 0
h -20 111 0
h -20 133 0
h -20 141 0
h -20 184 0
h -20 221 0
h -20 228 0
h -21 106 0
h -21 109 0
h -21 118 0
h -21 151 0
h -21 169 0
h -21 177 0
h -21 222 0
h -21 247 0
h -22 114 0
h -22 126 0
h -22 135 0
h -22 187 0
h -22 192 0
h -22 205 0
h -22 235 0
h -23 110 0
h -23 121 0
h -23 151 0
h -23 159 0
h -23 170 0
h -23 172 0
h -23 229 0
h -24 112 0
h -24 142 0
h -24 146 0
h -24 164 0
h -24 242 0
h -25 107 0
h -25 108 0
h -25 171 0
h -25 211 0
h -25 232 0
h -25 238 0
h -26 136 0
h -26 139 0
h -26 183 0
h -26 194 0
h -27 104 0
h -27 129 0
h -27 155 0
h -27 172 0
h -27 201 0
h -27 234 0
h -28 116 0
h -28 214 0
h -28 219 0
h -28 223 0
h -28 224 0
h -29 133 0
h -29 140 0
h -29 200 0
h -29 207 0
h -29 215 0
h -29 224 0
h -29 248 0
h -30 102 0
h -30 106 0
h -30 120 0
h -30 134 0
h -30 220 0
h -30 236 0
h -30 240 0
h -31 129 0
h -31 154 0
h -31 159 0
h -31 178 0
h -31 250 0
h -32 112 0
h -32 155 0
h -32 168 0
h -32 182 0
h -32 192 0
h -32 196 0
h -32 209 0
h -33 115 0
h -33 152 0
h -33 162 0
h -33 206 0
h -33 235 0
h -33 238 0
h -33 241 0
h -34 101 0
h -34 167 0
h -34 201 0
h -35 127 0
h -35 163 0
h -35 186 0
h -35 239 0
h -36 115 0
h -36 156 0
h -36 190 0
h -36 227 0
h -36 228 0
h -37 140 0
h -37 160 0
h -37 191 0
h -37 213 0
h -37 216 0
h -38 113 0
h -38 143 0
h -38 144 0
h -38 151 0
h -38 199 0
h -38 233 0
h -38 235 0
h -39 102 0
h -39 109 0
h -39 111 0
h -39 116 0
h -39 118 0
h -39 134 0
h -39 181 0
h -39 191 0
h -39 226 0
h -39 236 0
h -39 239 0
h -40 120 0
h -40 137 0
h -40 154 0
h -40 220 0
h -40 232 0
h -40 246 0
h -41 129 0
h -41 135 0
h -41 169 0
h -41 198 0
h -41 222 0
h -41 245 0
h -41 247 0
h -42 118 0
h -42 157 0
h -42 161 0
h -42 168 0
h -42 174 0
h -42 202 0
h -42 232 0
h -43 175 0
h -43 181 0
h -43 188 0
h -43 198 0
h -43 250 0
h -44 101 0
h -44 110 0
h -44 147 0
h -44 182 0
h -45 107 0
h -45 119 0
h -45 122 0
h -45 175 0
h -45 187 0
h -45 197 0
h -45 212 0
h -45 215 0
h -45 221 0
h -46 110 0
h -46 130 0
h -46 218 0
h -46 235 0
h -46 243 0
h -47 158 0
h -47 200 0
h -47 229 0
h -47 238 0
h -48 149 0
h -48 236 0
h -49 105 0
h -49 119 0
h -49 164 0
h -49 176 0
h -49 186 0
h -49 221 0
h -50 103 0
h -50 115 0
h -50 124 0
h -50 131 0
h -50 137 0
h -50 164 0
h -50 190 0
h -50 201 0
h -50 204 0
h -50 211 0
h -50 225 0
h -50 233 0
h -51 121 0
h -51 166 0
h -51 178 0
h -51 207 0
h -52 114 0
h -52 218 0
h -52 234 0
h -52 247 0
h -52 248 0
h -53 128 0
h -53 130 0
h -53 143 0
h -53 147 0
h -53 150 0
h -53 196 0
h -53 249 0
h -54 130 0
h -54 152 0
h -54 156 0
h -54 181 0
h -54 225 0
h -55 114 0
h -55 127 0
h -55 163 0
h -55 210 0
h -55 216 0
h -55 243 0
h -56 115 0
h -56 118 0
h -56 126 0
h -56 134 0
h -56 191 0
h -56 200 0
h -57 108 0
h -57 154 0
h -57 165 0
h -57 203 0
h -58 149 0
h -58 179 0
h -58 182 0
h -58 197 0
h -58 205 0
h -59 101 0
h -59 128 0
h -59 132 0
h -59 176 0
h -60 144 0
h -60 153 0
h -60 205 0
h -60 233 0
h -61 120 0
h -61 137 0
h -61 143 0
h -61 153 0
h -61 163 0
h -61 173 0
h -61 195 0
h -61 209 0
h -61 220 0
h -62 103 0
h -62 107 0
h -62 108 0
h -62 138 0
h -62 139 0
h -62 153 0
h -62 165 0
h -62 182 0
h -62 187 0
h -62 188 0
h -62 202 0
h -62 205 0
h -62 233 0
h -62 246 0
h -63 127 0
h -63 170 0
h -63 171 0
h -63 176 0
h -63 203 0
h -63 207 0
h -63 226 0
h -63 239 0
h -63 244 0
h -63 248 0
h -64 189 0
h -64 208 0
h -64 221 0
h -64 236 0
h -65 102 0
h -65 129 0
h -65 138 0
h -65 161 0
h -65 166 0
h -65 210 0
h -65 212 0
h -65 214 0
h -66 104 0
h -66 132 0
h -66 194 0
h -66 203 0
h -66 217 0
h -66 234 0
h -66 240 0
h -66 249 0
h -67 104 0
h -67 138 0
h -67 199 0
h -67 202 0
h -67 213 0
h -68 122 0
h -68 135 0
h -68 149 0
h -68 185 0
h -68 204 0
h -68 213 0
h -68 219 0
h -68 224 0
h -68 231 0
h -68 237 0
h -69 113 0
h -69 148 0
h -69 204 0
h -70 103 0
h -70 210 0
h -70 215 0
h -70 237 0
h -71 119 0
h -71 128 0
h -71 142 0
h -71 194 0
h -71 198 0
h -71 215 0
h -71 217 0
h -72 180 0
h -72 199 0
h -72 202 0
h -72 212 0
h -72 223 0
h -72 227 0
h -72 230 0
h -73 102 0
h -73 113 0
h -73 169 0
h -73 192 0
h -73 250 0
h -74 136 0
h -74 143 0
h -74 189 0
h -74 193 0
h -74 229 0
h -74 242 0
h -74 248 0
h -75 132 0
h -75 193 0
h -75 194 0
h -75 197 0
h -75 209 0
h -75 224 0
h -75 230 0
h -75 244 0
h -76 106 0
h -76 131 0
h -76 148 0
h -76 188 0
h -76 203 0
h -77 104 0
h -77 112 0
h -77 136 0
h -77 183 0
h -77 198 0
h -77 207 0
h -77 210 0
h -78 125 0
h -78 134 0
h -78 141 0
h -78 145 0
h -78 158 0
h -78 208 0
h -78 234 0
h -78 245 0
h -78 246 0
h -79 160 0
h -79 179 0
h -79 219 0
h -79 237 0
h -80 120 0
h -80 140 0
h -80 146 0
h -80 150 0
h -80 158 0
h -80 172 0
h -80 173 0
h -80 178 0
h -80 187 0
h -80 241 0
h -81 103 0
h -81 147 0
h -81 183 0
h -82 117 0
h -82 128 0
h -82 184 0
h -82 193 0
h -82 195 0
h -82 216 0
h -83 110 0
h -83 122 0
h -83 139 0
h -83 151 0
h -83 172 0
h -83 203 0
h -83 226 0
h -84 131 0
h -84 157 0
h -84 173 0
h -84 178 0
h -84 206 0
h -84 219 0
h -84 225 0
h -84 231 0
h -85 145 0
h -85 168 0
h -85 170 0
h -85 177 0
h -85 242 0
h -86 101 0
h -86 121 0
h -86 126 0
h -86 167 0
h -86 186 0
h -86 249 0
h -87 106 0
h -87 173 0
h -87 193 0
h -87 243 0
h -88 123 0
h -88 124 0
h -88 139 0
h -88 156 0
h -88 176 0
h -88 190 0
h -88 192 0
h -89 154 0
h -89 184 0
h -89 204 0
h -89 211 0
h -89 222 0
h -89 241 0
h -90 113 0
h -90 125 0
h -90 141 0
h -90 152 0
h -90 155 0
h -90 242 0
h -91 123 0
h -91 148 0
h -91 156 0
h -91 167 0
h -91 177 0
h -91 228 0
h -92 160 0
h -92 166 0
h -92 191 0
h -92 229 0
h -92 230 0
h -93 117 0
h -93 150 0
h -93 180 0
h -93 223 0
h -93 239 0
h -94 107 0
h -94 109 0
h -94 137 0
h -94 180 0
h -94 195 0
h -94 220 0
h -94 246 0
h -95 105 0
h -95 116 0
h -95 124 0
h -95 157 0
h -95 174 0
h -95 245 0
h -95 247 0
h -96 119 0
h -96 136 0
h -96 141 0
h -96 144 0
h -96 153 0
h -96 180 0
h -96 185 0
h -96 186 0
h -97 105 0
h -97 179 0
h -97 185 0
h -97 211 0
h -98 165 0
h -98 216 0
h -99 131 0
h -99 145 0
h -99 155 0
h -99 170 0
h -100 122 0
h -100 124 0
h -100 133 0
h -100 157 0
h -100 177 0
h -101 34 44 59 86 0
h -102 30 39 65 73 0
h -103 50 62 70 81 0
h -104 27 66 67 77 0
h -105 17 49 95 97 0
h -106 21 30 76 87 0
h -107 25 45 62 94 0
h -108 6 25 57 62 0
h -109 16 21 39 94 0
h -110 23 44 46 83 0
h -111 5 17 20 39 0
h -112 1 24 32 77 0
h -113 38 69 73 90 0
h -114 8 22 52 55 0
h -115 33 36 50 56 0
h -116 18 28 39 95 0
h -117 2 11 82 93 0
h -118 21 39 42 56 0
h -119 45 49 71 96 0
h -120 30 40 61 80 0
h -121 6 23 51 86 0
h -122 45 68 83 100 0
h -123 11 17 88 91 0
h -124 50 88 95 100 0
h -125 12 15 78 90 0
h -126 16 22 56 86 0
h -127 3 35 55 63 0
h -128 53 59 71 82 0
h -129 27 31 41 65 0
h -130 3 46 53 54 0
h -131 50 76 84 99 0
h -132 8 59 66 75 0
h -133 10 20 29 100 0
h -134 30 39 56 78 0
h -135 7 22 41 68 0
h -136 26 74 77 96 0
h -137 40 50 61 94 0
h -138 2 62 65 67 0
h -139 26 62 83 88 0
h -140 15 29 37 80 0
h -141 20 78 90 96 0
h -142 9 19 24 71 0
h -143 38 53 61 74 0
h -144 11 38 60 96 0
h -145 7 78 85 99 0
h -146 4 15 24 80 0
h -147 16 44 53 81 0
h -148 10 69 76 91 0
h -149 11 48 58 68 0
h -150 15 53 80 93 0
h -151 21 23 38 83 0
h -152 7 33 54 90 0
h -153 60 61 62 96 0
h -154 31 40 57 89 0
h -155 27 32 90 99 0
h -156 36 54 88 91 0
h -157 42 84 95 100 0
h -158 9 47 78 80 0
h -159 10 12 23 31 0
h -160 9 37 79 92 0
h -161 10 13 42 65 0
h -162 3 8 17 33 0
h -163 17 35 55 61 0
h -164 9 24 49 50 0
h -165 11 57 62 98 0
h -166 19 51 65 92 0
h -167 14 34 86 91 0
h -168 13 32 42 85 0
h -169 14 21 41 73 0
h -170 23 63 85 99 0
h -171 15 16 25 63 0
h -172 23 27 80 83 0
h -173 61 80 84 87 0
h -174 1 5 42 95 0
h -175 13 19 43 45 0
h -176 49 59 63 88 0
h -177 21 85 91 100 0
h -178 31 51 80 84 0
h -179 8 58 79 97 0
h -180 72 93 94 96 0
h -181 8 39 43 54 0
h -182 32 44 58 62 0
h -183 10 26 77 81 0
h -184 10 20 82 89 0
h -185 7 68 96 97 0
h -186 35 49 86 96 0
h -187 22 45 62 80 0
h -188 15 43 62 76 0
h -189 2 19 64 74 0
h -190 16 36 50 88 0
h -191 37 39 56 92 0
h -192 22 32 73 88 0
h -193 74 75 82 87 0
h -194 26 66 71 75 0
h -195 13 61 82 94 0
h -196 14 18 32 53 0
h -197 13 45 58 75 0
h -198 41 43 71 77 0
h -199 4 38 67 72 0
h -200 14 29 47 56 0
h -201 11 27 34 50 0
h -202 42 62 67 72 0
h -203 57 63 66 76 83 0
h -204 50 68 69 89 0
h -205 22 58 60 62 0
h -206 3 12 33 84 0
h -207 29 51 63 77 0
h -208 10 18 64 78 0
h -209 5 32 61 75 0
h -210 6 55 65 70 77 0
h -211 25 50 89 97 0
h -212 9 45 65 72 0
h -213 3 37 67 68 0
h -214 3 15 28 65 0
h -215 29 45 70 71 0
h -216 37 55 82 98 0
h -217 2 16 66 71 0
h -218 1 4 46 52 0
h -219 28 68 79 84 0
h -220 30 40 61 94 0
h -221 20 45 49 64 0
h -222 14 21 41 89 0
h -223 9 28 72 93 0
h -224 28 29 68 75 0
h -225 6 50 54 84 0
h -226 4 39 63 83 0
h -227 4 18 36 72 0
h -228 4 20 36 91 0
h -229 23 47 74 92 0
h -230 2 72 75 92 0
h -231 1 14 68 84 0
h -232 14 25 40 42 0
h -233 38 50 60 62 0
h -234 27 52 66 78 0
h -235 22 33 38 46 0
h -236 30 39 48 64 0
h -237 5 68 70 79 0
h -238 4 25 33 47 0
h -239 35 39 63 93 0
h -240 6 12 30 66 0
h -241 5 33 80 89 0
h -242 24 74 85 90 0
h -243 3 46 55 87 0
h -244 11 16 63 75 0
h -245 16 41 78 95 0
h -246 40 62 78 94 0
h -247 21 41 52 95 0
h -248 29 52 63 74 0
h -249 15 53 66 86 0
h -250 4 31 43 73 0
h -751 0
h -752 0
h 501 0
h 251 0
h -753 0
h -754 0
h 502 0
h 252 0
h -755 0
h -756 0
h 503 0
h 253 0
h -757 0
h -758 0
h 504 0
h 254 0
h -759 0
h -760 0
h 505 0
h 255 0
h -761 0
h -762 0
h 506 0
h 256 0
h -763 0
h -764 0
h 507 0
h 257 0
h -765 0
h -766 0
h 508 0
h 258 0
h -767 0
h -768 0
h 509 0
h 259 0
h -769 0
h -770 0
h 510 0
h 260 0
h -771 0
h -772 0
h 511 0
h 261 0
h -773 0
h -774 0
h 512 0
h 262 0
h -775 0
h -776 0
h 513 0
h 263 0
h -777 0
h -778 0
h 514 0
h 264 0
h -779 0
h -780 0
h 515 0
h 265 0
h -781 0
h -782 0
h 516 0
h 266 0
h -783 0
h -784 0
h 517 0
h 267 0
h -785 0
h -786 0
h 518 0
h 268 0
h -787 0
h -788 0
h 519 0
h 269 0
h -789 0
h -790 0
h 520 0
h 270 0
h -791 0
h -792 0
h 521 0
h 271 0
h -793 0
h -794 0
h 522 0
h 272 0
h -795 0
h -796 0
h 523 0
h 273 0
h -797 0
h -798 0
h 524 0
h 274 0
h -799 0
h -800 0
h 525 0
h 275 0
h -801 0
h -802 0
h 526 0
h 276 0
h -803 0
h -804 0
h 527 0
h 277 0
h -805 0
h -806 0
h 528 0
h 278 0
h -807 0
h -808 0
h 529 0
h 279 0
h -809 0
h -810 0
h 530 0
h 280 0
h -811 0
h -812 0
h 531 0
h 281 0
h -813 0
h -814 0
h 532 0
h 282 0
h -815 0
h -816 0
h 533 0
h 283 0
h -817 0
h -818 0
h 534 0
h 284 0
h -819 0
h -820 0
h 535 0
h 285 0
h -821 0
h -822 0
h 536 0
h 286 0
h -823 0
h -824 0
h 537 0
h 287 0
h -825 0
h -826 0
h 538 0
h 288 0
h -827 0
h -828 0
h 539 0
h 289 0
h -829 0
h -830 0
h 540 0
h 290 0
h -831 0
h -832 0
h 541 0
h 291 0
h -833 0
h -834 0
h 542 0
h 292 0
h -835 0
h -836 0
h 543 0
h 293 0
h -837 0
h -838 0
h 544 0
h 294 0
h -839 0
h -840 0
h 545 0
h 295 0
h -841 0
h -842 0
h 546 0
h 296 0
h -843 0
h -844 0
h 547 0
h 297 0
h -845 0
h -846 0
h 548 0
h 298 0
h -847 0
h -848 0
h 549 0
h 299 0
h -849 0
h -850 0
h 550 0
h 300 0
h -851 0
h -852 0
h 551 0
h 301 0
h -853 0
h -854 0
h 552 0
h 302 0
h -855 0
h -856 0
h 553 0
h 303 0
h -857 0
h -858 0
h 554 0
h 304 0
h -859 0
h -860 0
h 555 0
h 305 0
h -861 0
h -862 0
h 556 0
h 306 0
h -863 0
h -864 0
h 557 0
h 307 0
h -865 0
h -866 0
h 558 0
h 308 0
h -867 0
h -868 0
h 559 0
h 309 0
h -869 0
h -870 0
h 560 0
h 310 0
h -871 0
h -872 0
h 561 0
h 311 0
h -873 0
h -874 0
h 562 0
h 312 0
h -875 0
h -876 0
h 563 0
h 313 0
h -877 0
h -878 0
h 564 0
h 314 0
h -879 0
h -880 0
h 565 0
h 315 0
h -881 0
h -882 0
h 566 0
h 316 0
h -883 0
h -884 0
h 567 0
h 317 0
h -885 0
h -886 0
h 568 0
h 318 0
h -887 0
h -888 0
h 569 0
h 319 0
h -889 0
h -890 0
h 570 0
h 320 0
h -891 0
h -892 0
h 571 0
h 321 0
h -893 0
h -894 0
h 572 0
h 322 0
h -895 0
h -896 0
h 573 0
h 323 0
h -897 0
h -898 0
h 574 0
h 324 0
h -899 0
h -900 0
h 575 0
h 325 0
h -901 0
h -902 0
h 576 0
h 326 0
h -903 0
h -904 0
h 577 0
h 327 0
h -905 0
h -906 0
h 578 0
h 328 0
h -907 0
h -908 0
h 579 0
h 329 0
h -909 0
h -910 0
h 580 0
h 330 0
h -911 0
h -912 0
h 581 0
h 331 0
h -913 0
h -914 0
h 582 0
h 332 0
h -915 0
h -916 0
h 583 0
h 333 0
h -917 0
h -918 0
h 584 0
h 334 0
h -919 0
h -920 0
h 585 0
h 335 0
h -921 0
h -922 0
h 586 0
h 336 0
h -923 0
h -924 0
h 587 0
h 337 0
h -925 0
h -926 0
h 588 0
h 338 0
h -927 0
h -928 0
h 589 0
h 339 0
h -929 0
h -930 0
h 590 0
h 340 0
h -931 0
h -932 0
h 591 0
h 341 0
h -933 0
h -934 0
h 592 0
h 342 0
h -935 0
h -936 0
h 593 0
h 343 0
h -937 0
h -938 0
h 594 0
h 344 0
h -939 0
h -940 0
h 595 0
h 345 0
h -941 0
h -942 0
h 596 0
h 346 0
h -943 0
h -944 0
h 597 0
h 347 0
h -945 0
h -946 0
h 598 0
h 348 0
h -947 0
h -948 0
h 599 0
h 349 0
h -949 0
h -950 0
h 600 0
h 350 0
h -951 0
h -952 0
h 601 0
h 351 0
h -953 0
h -954 0
h 602 0
h 352 0
h -955 0
h -956 0
h 603 0
h 353 0
h -957 0
h -958 0
h 604 0
h 354 0
h -959 0
h -960 0
h 605 0
h 355 0
h -961 0
h -962 0
h 606 0
h 356 0
h -963 0
h -964 0
h 607 0
h 357 0
h -965 0
h -966 0
h 608 0
h 358 0
h -967 0
h -968 0
h 609 0
h 359 0
h -969 0
h -970 0
h 610 0
h 360 0
h -971 0
h -972 0
h 611 0
h 361 0
h -973 0
h -974 0
h 612 0
h 362 0
h -975 0
h -976 0
h 613 0
h 363 0
h -977 0
h -978 0
h 614 0
h 364 0
h -979 0
h -980 0
h 615 0
h 365 0
h -981 0
h -982 0
h 616 0
h 366 0
h -983 0
h -984 0
h 617 0
h 367 0
h -985 0
h -986 0
h 618 0
h 368 0
h -987 0
h -988 0
h 619 0
h 369 0
h -989 0
h -990 0
h 620 0
h 370 0
h -991 0
h -992 0
h 621 0
h 371 0
h -993 0
h -994 0
h 622 0
h 372 0
h -995 0
h -996 0
h 623 0
h 373 0
h -997 0
h -998 0
h 624 0
h 374 0
h -999 0
h -1000 0
h 625 0
h 375 0
h -1001 0
h -1002 0
h 626 0
h 376 0
h -1003 0
h -1004 0
h 627 0
h 377 0
h -1005 0
h -1006 0
h 628 0
h 378 0
h -1007 0
h -1008 0
h 629 0
h 379 0
h -1009 0
h -1010 0
h 630 0
h 380 0
h -1011 0
h -1012 0
h 631 0
h 381 0
h -1013 0
h -1014 0
h 632 0
h 382 0
h -1015 0
h -1016 0
h 633 0
h 383 0
h -1017 0
h -1018 0
h 634 0
h 384 0
h -1019 0
h -1020 0
h 635 0
h 385 0
h -1021 0
h -1022 0
h 636 0
h 386 0
h -1023 0
h -1024 0
h 637 0
h 387 0
h -1025 0
h -1026 0
h 638 0
h 388 0
h -1027 0
h -1028 0
h 639 0
h 389 0
h -1029 0
h -1030 0
h 640 0
h 390 0
h -1031 0
h -1032 0
h 641 0
h 391 0
h -1033 0
h -1034 0
h 642 0
h 392 0
h -1035 0
h -1036 0
h 643 0
h 393 0
h -1037 0
h -1038 0
h 644 0
h 394 0
h -1039 0
h -1040 0
h 645 0
h 395 0
h -1041 0
h -1042 0
h 646 0
h 396 0
h -1043 0
h -1044 0
h 647 0
h 397 0
h -1045 0
h -1046 0
h 648 0
h 398 0
h -1047 0
h -1048 0
h 649 0
h 399 0
h -1049 0
h -1050 0
h 650 0
h 400 0
h -1051 0
h -1052 0
h 651 0
h 401 0
h -1053 0
h -1054 0
h 652 0
h 402 0
h -1055 0
h -1056 0
h 653 0
h 403 0
h -1057 0
h -1058 0
h 654 0
h 404 0
h -1059 0
h -1060 0
h 655 0
h 405 0
h -1061 0
h -1062 0
h 656 0
h 406 0
h -1063 0
h -1064 0
h 657 0
h 407 0
h -1065 0
h -1066 0
h 658 0
h 408 0
h -1067 0
h -1068 0
h 659 0
h 409 0
h -1069 0
h -1070 0
h 660 0
h 410 0
h -1071 0
h -1072 0
h 661 0
h 411 0
h -1073 0
h -1074 0
h 662 0
h 412 0
h -1075 0
h -1076 0
h 663 0
h 413 0
h -1077 0
h -1078 0
h 664 0
h 414 0
h -1079 0
h -1080 0
h 665 0
h 415 0
h -1081 0
h -1082 0
h 666 0
h 416 0
h -1083 0
h -1084 0
h 667 0
h 417 0
h -1085 0
h -1086 0
h 668 0
h 418 0
h -1087 0
h -1088 0
h 669 0
h 419 0
h -1089 0
h -1090 0
h 670 0
h 420 0
h -1091 0
h -1092 0
h 671 0
h 421 0
h -1093 0
h -1094 0
h 672 0
h 422 0
h -1095 0
h -1096 0
h 673 0
h 423 0
h -1097 0
h -1098 0
h 674 0
h 424 0
h -1099 0
h -1100 0
h 675 0
h 425 0
h -1101 0
h -1102 0
h 676 0
h 426 0
h -1103 0
h -1104 0
h 677 0
h 427 0
h -1105 0
h -1106 0
h 678 0
h 428 0
h -1107 0
h -1108 0
h 679 0
h 429 0
h -1109 0
h -1110 0
h 680 0
h 430 0
h -1111 0
h -1112 0
h 681 0
h 431 0
h -1113 0
h -1114 0
h 682 0
h 432 0
h -1115 0
h -1116 0
h 683 0
h 433 0
h -1117 0
h -1118 0
h 684 0
h 434 0
h -1119 0
h -1120 0
h 685 0
h 435 0
h -1121 0
h -1122 0
h 686 0
h 436 0
h -1123 0
h -1124 0
h 687 0
h 437 0
h -1125 0
h -1126 0
h 688 0
h 438 0
h -1127 0
h -1128 0
h 689 0
h 439 0
h -1129 0
h -1130 0
h 690 0
h 440 0
h -1131 0
h -1132 0
h 691 0
h 441 0
h -1133 0
h -1134 0
h 692 0
h 442 0
h -1135 0
h -1136 0
h 693 0
h 443 0
h -1137 0
h -1138 0
h 694 0
h 444 0
h -1139 0
h -1140 0
h 695 0
h 445 0
h -1141 0
h -1142 0
h 696 0
h 446 0
h -1143 0
h -1144 0
h 697 0
h 447 0
h -1145 0
h -1146 0
h 698 0
h 448 0
h -1147 0
h -1148 0
h 699 0
h 449 0
h -1149 0
h -1150 0
h 700 0
h 450 0
h -1151 0
h -1152 0
h 701 0
h 451 0
h -1153 0
h -1154 0
h 702 0
h 452 0
h -1155 0
h -1156 0
h 703 0
h 453 0
h -1157 0
h -1158 0
h 704 0
h 454 0
h -1159 0
h -1160 0
h 705 0
h 455 0
h -1161 0
h -1162 0
h 706 0
h 456 0
h -1163 0
h -1164 0
h 707 0
h 457 0
h -1165 0
h -1166 0
h 708 0
h 458 0
h -1167 0
h -1168 0
h 709 0
h 459 0
h -1169 0
h -1170 0
h 710 0
h 460 0
h -1171 0
h -1172 0
h 711 0
h 461 0
h -1173 0
h -1174 0
h 712 0
h 462 0
h -1175 0
h -1176 0
h 713 0
h 463 0
h -1177 0
h -1178 0
h 714 0
h 464 0
h -1179 0
h -1180 0
h 715 0
h 465 0
h -1181 0
h -1182 0
h 716 0
h 466 0
h -1183 0
h -1184 0
h 717 0
h 467 0
h -1185 0
h -1186 0
h 718 0
h 468 0
h -1187 0
h -1188 0
h 719 0
h 469 0
h -1189 0
h -1190 0
h 720 0
h 470 0
h -1191 0
h -1192 0
h 721 0
h 471 0
h -1193 0
h -1194 0
h 722 0
h 472 0
h -1195 0
h -1196 0
h 723 0
h 473 0
h -1197 0
h -1198 0
h 724 0
h 474 0
h -1199 0
h -1200 0
h 725 0
h 475 0
h -1201 0
h -1202 0
h 726 0
h 476 0
h -1203 0
h -1204 0
h 727 0
h 477 0
h -1205 0
h -1206 0
h 728 0
h 478 0
h -1207 0
h -1208 0
h 729 0
h 479 0
h -1209 0
h -1210 0
h 730 0
h 480 0
h -1211 0
h -1212 0
h 731 0
h 481 0
h -1213 0
h -1214 0
h 732 0
h 482 0
h -1215 0
h -1216 0
h 733 0
h 483 0
h -1217 0
h -1218 0
h 734 0
h 484 0
h -1219 0
h -1220 0
h 735 0
h 485 0
h -1221 0
h -1222 0
h 736 0
h 486 0
h -1223 0
h -1224 0
h 737 0
h 487 0
h -1225 0
h -1226 0
h 738 0
h 488 0
h -1227 0
h -1228 0
h 739 0
h 489 0
h -1229 0
h -1230 0
h 740 0
h 490 0
h -1231 0
h -1232 0
h 741 0
h 491 0
h -1233 0
h -1234 0
h 742 0
h 492 0
h -1235 0
h -1236 0
h 743 0
h 493 0
h -1237 0
h -1238 0
h 744 0
h 494 0
h -1239 0
h -1240 0
h 745 0
h 495 0
h -1241 0
h -1242 0
h 746 0
h 496 0
h -1243 0
h -1244 0
h 747 0
h 497 0
h -1245 0
h -1246 0
h 748 0
h 498 0
h -1247 0
h -1248 0
h 749 0
h 499 0
h -1249 0
h -1250 0
h 750 0
h 500 0
h -86 -3 0
h -95 -3 0
h -95 -86 0
h -60 -59 0
h -8 -59 0
h -8 -60 0
h -59 -68 0
h -69 -68 0
h -69 -59 0
h -30 -2 0
h -90 -2 0
h -90 -30 0
h -40 -21 0
h -86 -21 0
h -86 -40 0
h -23 -53 0
h -62 -53 0
h -62 -23 0
h -97 -27 0
h -1 -27 0
h -1 -97 0
h -9 -65 0
h -53 -65 0
h -53 -9 0
h -34 -12 0
h -45 -12 0
h -45 -34 0
h -98 -35 0
h -14 -35 0
h -14 -98 0
h -22 -31 0
h -3 -31 0
h -3 -22 0
h -93 -43 0
h -25 -43 0
h -25 -93 0
h -50 -26 0
h -20 -26 0
h -20 -50 0
h -38 -93 0
h -88 -93 0
h -88 -38 0
h -79 -44 0
h -33 -44 0
h -33 -79 0
h -70 -100 0
h -96 -100 0
h -96 -70 0
h -66 -78 0
h -32 -78 0
h -32 -66 0
h -69 -95 0
h -88 -95 0
h -88 -69 0
h -9 -98 0
h -68 -98 0
h -68 -9 0
h -36 -64 0
h -80 -64 0
h -80 -36 0
h -45 -79 0
h -52 -79 0
h -52 -45 0
h -89 -77 0
h -25 -77 0
h -25 -89 0
h -73 -96 0
h -44 -96 0
h -44 -73 0
h -31 -82 0
h -9 -82 0
h -9 -31 0
h -27 -76 0
h -74 -76 0
h -74 -27 0
h -85 -19 0
h -73 -19 0
h -73 -85 0
h -87 -71 0
h -31 -71 0
h -31 -87 0
h -82 -24 0
h -9 -24 0
h -9 -82 0
h -28 -100 0
h -82 -100 0
h -82 -28 0
h -76 -78 0
h -39 -78 0
h -39 -76 0
h -82 -51 0
h -14 -51 0
h -14 -82 0
h -77 -96 0
h -71 -96 0
h -71 -77 0
h -77 -75 0
h -54 -75 0
h -54 -77 0
h 101 0
h 102 0
h 103 0
h 104 0
h 105 0
h 106 0
h 107 0
h 108 0
h 109 0
h 110 0
h 111 0
h 112 0
h 113 0
h 114 0
h 115 0
h 116 0
h 117 0
h 118 0
h 119 0
h 120 0
h 121 0
h 122 0
h 123 0
h 124 0
h 125 0
h 126 0
h 127 0
h 128 0
h 129 0
h 130 0
h 131 0
h 132 0
h 133 0
h 134 0
h 135 0
h 136 0
h 137 0
h 138 0
h 139 0
h 140 0
h 141 0
h 142 0
h 143 0
h 144 0
h 145 0
h 146 0
h 147 0
h 148 0
h 149 0
h 150 0
1 -151 0
1 -152 0
1 -153 0
1 -154 0
1 -155 0
1 -156 0
1 -157 0
1 -158 0
1 -159 0
1 -160 0
1 -161 0
1 -162 0
1 -163 0
1 -164 0
1 -165 0
1 -166 0
1 -167 0
1 -168 0
1 -169 0
1 -170 0
1 -171 0
1 -172 0
1 -173 0
1 -174 0
1 -175 0
1 -176 0
1 -177 0
1 -178 0
1 -179 0
1 -180 0
1 -181 0
1 -182 0
1 -183 0
1 -184 0
1 -185 0
1 -186 0
1 -187 0
1 -188 0
1 -189 0
1 -190 0
1 -191 0
1 -192 0
1 -193 0
1 -194 0
1 -195 0
1 -196 0
1 -197 0
1 -198 0
1 -199 0
1 -200 0
1 -201 0
1 -202 0
1 -203 0
1 -204 0
1 -205 0
1 -206 0
1 -207 0
1 -208 0
1 -209 0
1 -210 0
1 -211 0
1 -212 0
1 -213 0
1 -214 0
1 -215 0
1 -216 0
1 -217 0
1 -218 0
1 -219 0
1 -220 0
1 -221 0
1 -222 0
1 -223 0
1 -224 0
1 -225 0
1 -226 0
1 -227 0
1 -228 0
1 -229 0
1 -230 0
1 -231 0
1 -232 0
1 -233 0
1 -234 0
1 -235 0
1 -236 0
1 -237 0
1 -238 0
1 -239 0
1 -240 0
1 -241 0
1 -242 0
1 -243 0
1 -244 0
1 -245 0
1 -246 0
1 -247 0
1 -248 0
1 -249 0
1 -250 0
